c b=10,c=257
p cnf 29 212
1 2 10 -20 0
1 10 -28 0
1 2 -10 20 0
1 2 -10 28 0
1 9 -19 0
2 9 -27 0
1 -9 19 0
1 2 -9 27 0
8 -18 0
1 2 8 -26 0
-8 18 0
1 2 -8 26 0
7 -17 0
1 2 7 -25 0
-7 17 0
1 2 -7 25 0
6 -16 0
1 2 6 -24 0
-6 16 0
1 2 -6 24 0
5 -15 0
1 2 5 -23 0
-5 15 0
1 2 -5 23 0
4 -14 0
1 2 4 -22 0
-4 14 0
1 2 -4 22 0
3 -13 0
1 2 3 -21 0
-3 13 0
1 2 -3 21 0
2 -12 0
1 2 -29 0
1 -2 10 20 0
1 3 10 -21 0
1 -2 -10 -20 0
-2 3 -10 21 0
3 -10 28 0
3 9 -27 0
3 -9 27 0
3 8 -26 0
3 -8 26 0
3 7 -25 0
3 -7 25 0
3 6 -24 0
3 -6 24 0
3 5 -23 0
3 -5 23 0
3 4 -22 0
3 -4 22 0
3 -29 0
1 -3 10 21 0
1 4 10 -22 0
-2 -3 -10 -21 0
-2 -3 4 -10 22 0
4 -10 28 0
4 9 -27 0
4 -9 27 0
4 8 -26 0
4 -8 26 0
4 7 -25 0
4 -7 25 0
4 6 -24 0
4 -6 24 0
4 5 -23 0
4 -5 23 0
4 -29 0
1 -4 10 22 0
1 5 10 -23 0
-2 -3 -4 -10 -22 0
-2 -3 -4 5 -10 23 0
5 -10 28 0
5 9 -27 0
5 -9 27 0
5 8 -26 0
5 -8 26 0
5 7 -25 0
5 -7 25 0
5 6 -24 0
5 -6 24 0
5 -29 0
1 -5 10 23 0
1 6 10 -24 0
-2 -3 -4 -5 -10 -23 0
-2 -3 -4 -5 6 -10 24 0
6 -10 28 0
6 9 -27 0
6 -9 27 0
6 8 -26 0
6 -8 26 0
6 7 -25 0
6 -7 25 0
6 -29 0
1 -6 10 24 0
1 7 10 -25 0
-2 -3 -4 -5 -6 -10 -24 0
-2 -3 -4 -5 -6 7 -10 25 0
7 -10 28 0
7 9 -27 0
7 -9 27 0
7 8 -26 0
7 -8 26 0
7 -29 0
1 -7 10 25 0
1 8 10 -26 0
-2 -3 -4 -5 -6 -7 -10 -25 0
-2 -3 -4 -5 -6 -7 8 -10 26 0
8 -10 28 0
8 9 -27 0
8 -9 27 0
8 -29 0
1 -8 10 26 0
1 9 10 -27 0
-2 -3 -4 -5 -6 -7 -8 -10 -26 0
-2 -3 -4 -5 -6 -7 -8 9 -10 27 0
9 -10 28 0
9 -29 0
1 -9 10 27 0
10 -29 0
-2 -3 -4 -5 -6 -7 -8 -9 -10 -27 0
-2 -3 -4 -5 -6 -7 -8 -9 -10 29 0
1 -2 -3 -4 -5 -6 -7 -8 -9 -28 0
-2 12 0
1 -11 0
2 9 10 -20 0
2 10 -28 0
2 9 -10 20 0
-1 9 19 0
2 3 9 -21 0
-1 2 -9 10 20 0
2 3 10 -21 0
-1 2 -9 -10 -20 0
-1 3 -9 -10 21 0
-1 -9 -19 0
2 -3 9 21 0
2 4 9 -22 0
2 -3 10 21 0
2 4 10 -22 0
-1 -3 -9 -10 -21 0
-1 -3 4 -9 -10 22 0
2 -4 9 22 0
2 5 9 -23 0
2 -4 10 22 0
2 5 10 -23 0
-1 -3 -4 -9 -10 -22 0
-1 -3 -4 5 -9 -10 23 0
2 -5 9 23 0
2 6 9 -24 0
2 -5 10 23 0
2 6 10 -24 0
-1 -3 -4 -5 -9 -10 -23 0
-1 -3 -4 -5 6 -9 -10 24 0
2 -6 9 24 0
2 7 9 -25 0
2 -6 10 24 0
2 7 10 -25 0
-1 -3 -4 -5 -6 -9 -10 -24 0
-1 -3 -4 -5 -6 7 -9 -10 25 0
2 -7 9 25 0
2 8 9 -26 0
2 -7 10 25 0
2 8 10 -26 0
-1 -3 -4 -5 -6 -7 -9 -10 -25 0
-1 -3 -4 -5 -6 -7 8 -9 -10 26 0
2 -8 9 26 0
2 -8 10 26 0
2 -9 10 27 0
-1 -3 -4 -5 -6 -7 -8 -9 -10 -26 0
-1 2 -3 -4 -5 -6 -7 -8 -10 -27 0
-1 -3 -4 -5 -6 -7 -8 -9 -10 29 0
-1 2 -3 -4 -5 -6 -7 -8 -9 -28 0
-2 9 10 20 0
3 9 10 -21 0
3 10 -28 0
-2 9 -10 -20 0
-1 -2 -9 10 -20 0
-1 -2 -9 -10 20 0
-1 -2 3 -9 21 0
-3 9 10 21 0
4 9 10 -22 0
4 10 -28 0
-1 -2 -3 -9 -21 0
-1 -2 -3 4 -9 22 0
-4 9 10 22 0
5 9 10 -23 0
5 10 -28 0
-1 -2 -3 -4 -9 -22 0
-1 -2 -3 -4 5 -9 23 0
-5 9 10 23 0
6 9 10 -24 0
6 10 -28 0
-1 -2 -3 -4 -5 -9 -23 0
-1 -2 -3 -4 -5 6 -9 24 0
-6 9 10 24 0
7 9 10 -25 0
7 10 -28 0
-1 -2 -3 -4 -5 -6 -9 -24 0
-1 -2 -3 -4 -5 -6 7 -9 25 0
-7 9 10 25 0
8 9 10 -26 0
8 10 -28 0
-1 -2 -3 -4 -5 -6 -7 -9 -25 0
-1 -2 -3 -4 -5 -6 -7 8 -9 26 0
-8 9 10 26 0
-1 -2 -3 -4 -5 -6 -7 -8 10 -27 0
9 10 -28 0
-1 -2 -3 -4 -5 -6 -7 -8 -9 10 28 0
-1 -3 -4 -5 -6 -7 -8 -9 -10 -28 0
-1 -2 -3 -4 -5 -6 -7 -8 -9 -26 0
-1 -2 -3 -4 -5 -6 -7 -8 -9 -27 0
-1 11 0
